Maximize
  - 1.7624568898132 edge_0_9_0_0 - 2.7501077174087 edge_0_10_0_0
   - 3.0330213255342 edge_0_13_0_0 - 1.7386821963311 edge_0_14_0_0
   - 3.21018190932 edge_0_15_0_0 - 1.6697319238194 edge_0_16_0_0
   - 3.1707167748728 edge_0_18_0_0 - 1.2259474153625 edge_0_19_0_0
   - 2.07210256625 edge_0_21_0_0 - 0.25497330093945 edge_0_24_0_0
   - 2.5684993191252 edge_0_27_0_0 + 0.8166040016318662 edge_9_10_0_0
   + 0.2212812705073318 edge_9_12_0_0 + 1.172198788186978 edge_9_13_0_0
   + 0.5690789346987735 edge_9_14_0_0 + 0.156019005539935 edge_9_15_0_0
   + 0.1786512965404147 edge_9_16_0_0 - 0.0585974276387485 edge_9_17_0_0
   + 0.0236317367742273 edge_9_19_0_0 + 0.0643248173439149 edge_9_21_0_0
   + 0.544494924754245 edge_9_22_0_0 - 0.0953706411146505 edge_9_24_0_0
   - 0.1059118942997651 edge_9_25_0_0 + 0.122737933344709 edge_9_27_0_0
   + 0.4335074498117767 edge_9_28_0_0 + 1.104472590118589 edge_10_9_0_0
   + 0.8257494151996365 edge_10_12_0_0 + 1.542862463042453 edge_10_13_0_0
   + 0.8607466317738761 edge_10_14_0_0 - 0.2525575816565332 edge_10_15_0_0
   + 0.3672467329951579 edge_10_16_0_0 + 0.5073645596001362 edge_10_17_0_0
   - 0.2382891335722105 edge_10_18_0_0 + 0.1942456542388715 edge_10_19_0_0
   - 0.7590822709904417 edge_10_20_0_0 - 0.9772059620683783 edge_10_21_0_0
   + 0.0478146174089446 edge_10_22_0_0 + 0.1268687100741134 edge_10_24_0_0
   - 1.139264328952422 edge_10_27_0_0 + 1.012741249856177 edge_10_28_0_0
   - 0.0115454709973388 edge_12_9_0_0 + 1.361248194547929 edge_13_9_0_0
   + 3.817402382455118 edge_13_10_0_0 + 2.280584762557988 edge_13_12_0_0
   + 2.746442807187107 edge_13_14_0_0 + 0.4785181953055473 edge_13_15_0_0
   + 1.088477455638573 edge_13_16_0_0 + 0.9784700879480539 edge_13_17_0_0
   + 0.3115430933390178 edge_13_18_0_0 + 0.4376195003737069 edge_13_19_0_0
   + 0.3897463421672734 edge_13_21_0_0 + 0.4009985529598986 edge_13_22_0_0
   + 0.3000764712338423 edge_13_24_0_0 - 0.6225845451228684 edge_13_25_0_0
   - 0.0826552144211632 edge_13_26_0_0 + 0.5558456018764619 edge_13_27_0_0
   + 1.677304605315571 edge_13_28_0_0 + 2.512151878025405 edge_14_9_0_0
   + 2.512332663968816 edge_14_10_0_0 + 0.0601221070959788 edge_14_12_0_0
   + 2.261228511889914 edge_14_13_0_0 + 0.8472425768798328 edge_14_15_0_0
   + 3.687716275403482 edge_14_16_0_0 + 2.499279453062388 edge_14_17_0_0
   + 0.6315209132541735 edge_14_18_0_0 + 1.604685831958508 edge_14_19_0_0
   - 0.2982964464422357 edge_14_20_0_0 + 0.5612765277600906 edge_14_21_0_0
   - 0.0449419869289319 edge_14_22_0_0 + 0.5711316071406656 edge_14_24_0_0
   - 0.0820803841622231 edge_14_25_0_0 + 0.1693248504411894 edge_14_26_0_0
   + 0.3605855539167263 edge_14_27_0_0 + 4.129744395431907 edge_14_28_0_0
   - 0.4995271137473248 edge_15_9_0_0 - 0.4265058880663191 edge_15_10_0_0
   - 0.5670714465175244 edge_15_13_0_0 - 0.0869292784888982 edge_15_14_0_0
   + 0.2128987068642519 edge_15_16_0_0 - 0.233360475539847 edge_15_22_0_0
   - 0.7861722492024849 edge_15_25_0_0 - 0.2968348869589061 edge_15_27_0_0
   - 0.3818731734365483 edge_15_28_0_0 + 0.6113357616990142 edge_16_9_0_0
   + 0.4342615017935461 edge_16_10_0_0 - 0.4420652371036253 edge_16_12_0_0
   + 0.0209438748714626 edge_16_13_0_0 + 0.8597031316991189 edge_16_14_0_0
   + 3.542257991711846 edge_16_15_0_0 + 1.579607237205491 edge_16_17_0_0
   + 0.6762499913035058 edge_16_18_0_0 + 1.62623021483397 edge_16_19_0_0
   + 0.3483663033738652 edge_16_21_0_0 + 0.3638461942169551 edge_16_22_0_0
   - 0.2550847324366313 edge_16_24_0_0 - 0.0817829619884563 edge_16_25_0_0
   + 0.5020771840942971 edge_16_27_0_0 + 1.843137595608959 edge_16_28_0_0
   - 0.3033044871638499 edge_17_13_0_0 - 0.0409940172791623 edge_17_24_0_0
   - 0.112849311353188 edge_18_9_0_0 - 0.2493713259982552 edge_18_10_0_0
   - 0.8194885044029143 edge_18_13_0_0 + 0.1771415394180203 edge_18_14_0_0
   + 0.2745442366166155 edge_18_15_0_0 - 0.529126706967322 edge_18_16_0_0
   + 0.6890167550084395 edge_18_17_0_0 + 0.56785668652457 edge_18_19_0_0
   - 0.4755870562589912 edge_18_21_0_0 + 0.0925464636251851 edge_18_24_0_0
   - 0.2676875709518005 edge_18_26_0_0 - 0.9526337765364774 edge_18_27_0_0
   - 1.068382235379926 edge_18_28_0_0 + 1.192118951430885 edge_19_9_0_0
   + 0.5409842797941445 edge_19_10_0_0 + 0.0589114709392321 edge_19_13_0_0
   + 0.660807154145985 edge_19_14_0_0 - 0.2710125292189074 edge_19_15_0_0
   + 0.4776923159414735 edge_19_16_0_0 + 1.282745694211773 edge_19_17_0_0
   + 2.968539195264376 edge_19_18_0_0 - 0.3203688044089097 edge_19_20_0_0
   + 0.4537029412760921 edge_19_21_0_0 + 0.0121650542814193 edge_19_22_0_0
   + 0.5739201774103093 edge_19_25_0_0 - 0.6187275567441198 edge_19_26_0_0
   + 2.738493694112159 edge_19_27_0_0 + 2.209439716686005 edge_19_28_0_0
   + 0.4895810492471069 edge_20_19_0_0 - 0.1914337547648955 edge_21_9_0_0
   - 0.7101072696414771 edge_21_10_0_0 - 0.3841476776174998 edge_21_13_0_0
   - 0.0388536860672182 edge_21_14_0_0 + 0.1825070112714043 edge_21_15_0_0
   - 0.1123583684227929 edge_21_16_0_0 + 0.2303987862044669 edge_21_17_0_0
   + 0.4880063153035465 edge_21_18_0_0 + 2.678489768134019 edge_21_19_0_0
   + 3.818673193583173 edge_21_20_0_0 + 0.4541166753967936 edge_21_22_0_0
   + 0.0118236864811446 edge_21_24_0_0 + 0.778622961109404 edge_21_25_0_0
   + 0.1819743246386644 edge_21_26_0_0 + 2.044201230348328 edge_21_27_0_0
   + 1.402507629797507 edge_21_28_0_0 - 0.9298777668229808 edge_22_13_0_0
   - 0.3281761040206352 edge_22_15_0_0 - 0.3443421342791689 edge_22_16_0_0
   - 0.4006436845094177 edge_22_25_0_0 + 0.0101125430972126 edge_24_9_0_0
   + 0.0498515018453371 edge_24_10_0_0 + 0.0493570109603531 edge_24_13_0_0
   + 0.0893719504593326 edge_24_14_0_0 - 0.1997610435666191 edge_24_16_0_0
   + 0.1344190218794712 edge_24_17_0_0 + 0.701100780939437 edge_24_18_0_0
   + 0.1997836923324229 edge_24_19_0_0 + 0.5973199422302847 edge_24_21_0_0
   + 0.1954692766674749 edge_24_26_0_0 + 0.4281860824857819 edge_24_27_0_0
   + 0.0953396009040436 edge_25_19_0_0 - 0.5744295385524921 edge_25_20_0_0
   - 0.0601521297621895 edge_25_21_0_0 + 0.3208397853220468 edge_25_22_0_0
   + 1.025846097612432 edge_25_27_0_0 - 0.0415984337735009 edge_26_18_0_0
   + 0.3356108680693137 edge_26_21_0_0 + 0.9181734026884627 edge_26_27_0_0
   - 0.2668553436691909 edge_27_9_0_0 - 1.373468973731106 edge_27_10_0_0
   - 0.7099653976142255 edge_27_13_0_0 - 0.523555186667333 edge_27_14_0_0
   + 0.2726818483084601 edge_27_15_0_0 - 0.0251107817403082 edge_27_16_0_0
   + 0.7184206825922742 edge_27_17_0_0 + 0.7241086144185364 edge_27_18_0_0
   + 0.5073964943696794 edge_27_19_0_0 + 1.065040555816227 edge_27_20_0_0
   + 1.402525809751626 edge_27_21_0_0 + 0.5406193252011597 edge_27_22_0_0
   + 2.457190647933584 edge_27_25_0_0 + 2.058817914277012 edge_27_26_0_0
   + 0.6544945581575982 edge_27_28_0_0
Subject To
 one_parent_1: = 1
 consume_one_flow_unit_1: = 1
 one_parent_2: = 1
 consume_one_flow_unit_2: = 1
 one_parent_3: = 1
 consume_one_flow_unit_3: = 1
 one_parent_4: = 1
 consume_one_flow_unit_4: = 1
 one_parent_5: = 1
 consume_one_flow_unit_5: = 1
 one_parent_6: = 1
 consume_one_flow_unit_6: = 1
 one_parent_7: = 1
 consume_one_flow_unit_7: = 1
 one_parent_8: = 1
 consume_one_flow_unit_8: = 1
 one_parent_9: edge_0_9_0_0 + edge_10_9_0_0 + edge_12_9_0_0 + edge_13_9_0_0
   + edge_14_9_0_0 + edge_15_9_0_0 + edge_16_9_0_0 + edge_18_9_0_0
   + edge_19_9_0_0 + edge_21_9_0_0 + edge_24_9_0_0 + edge_27_9_0_0 = 1
 consume_one_flow_unit_9: flow_0_9_0_0 - flow_9_10_0_0 - flow_9_12_0_0
   - flow_9_13_0_0 - flow_9_14_0_0 - flow_9_15_0_0 - flow_9_16_0_0
   - flow_9_17_0_0 - flow_9_19_0_0 - flow_9_21_0_0 - flow_9_22_0_0
   - flow_9_24_0_0 - flow_9_25_0_0 - flow_9_27_0_0 - flow_9_28_0_0
   + flow_10_9_0_0 + flow_12_9_0_0 + flow_13_9_0_0 + flow_14_9_0_0
   + flow_15_9_0_0 + flow_16_9_0_0 + flow_18_9_0_0 + flow_19_9_0_0
   + flow_21_9_0_0 + flow_24_9_0_0 + flow_27_9_0_0 = 1
 one_parent_10: edge_0_10_0_0 + edge_9_10_0_0 + edge_13_10_0_0
   + edge_14_10_0_0 + edge_15_10_0_0 + edge_16_10_0_0 + edge_18_10_0_0
   + edge_19_10_0_0 + edge_21_10_0_0 + edge_24_10_0_0 + edge_27_10_0_0 = 1
 consume_one_flow_unit_10: flow_0_10_0_0 + flow_9_10_0_0 - flow_10_9_0_0
   - flow_10_12_0_0 - flow_10_13_0_0 - flow_10_14_0_0 - flow_10_15_0_0
   - flow_10_16_0_0 - flow_10_17_0_0 - flow_10_18_0_0 - flow_10_19_0_0
   - flow_10_20_0_0 - flow_10_21_0_0 - flow_10_22_0_0 - flow_10_24_0_0
   - flow_10_27_0_0 - flow_10_28_0_0 + flow_13_10_0_0 + flow_14_10_0_0
   + flow_15_10_0_0 + flow_16_10_0_0 + flow_18_10_0_0 + flow_19_10_0_0
   + flow_21_10_0_0 + flow_24_10_0_0 + flow_27_10_0_0 = 1
 one_parent_11: = 1
 consume_one_flow_unit_11: = 1
 one_parent_12: edge_9_12_0_0 + edge_10_12_0_0 + edge_13_12_0_0
   + edge_14_12_0_0 + edge_16_12_0_0 = 1
 consume_one_flow_unit_12: flow_9_12_0_0 + flow_10_12_0_0 - flow_12_9_0_0
   + flow_13_12_0_0 + flow_14_12_0_0 + flow_16_12_0_0 = 1
 one_parent_13: edge_0_13_0_0 + edge_9_13_0_0 + edge_10_13_0_0
   + edge_14_13_0_0 + edge_15_13_0_0 + edge_16_13_0_0 + edge_17_13_0_0
   + edge_18_13_0_0 + edge_19_13_0_0 + edge_21_13_0_0 + edge_22_13_0_0
   + edge_24_13_0_0 + edge_27_13_0_0 = 1
 consume_one_flow_unit_13: flow_0_13_0_0 + flow_9_13_0_0 + flow_10_13_0_0
   - flow_13_9_0_0 - flow_13_10_0_0 - flow_13_12_0_0 - flow_13_14_0_0
   - flow_13_15_0_0 - flow_13_16_0_0 - flow_13_17_0_0 - flow_13_18_0_0
   - flow_13_19_0_0 - flow_13_21_0_0 - flow_13_22_0_0 - flow_13_24_0_0
   - flow_13_25_0_0 - flow_13_26_0_0 - flow_13_27_0_0 - flow_13_28_0_0
   + flow_14_13_0_0 + flow_15_13_0_0 + flow_16_13_0_0 + flow_17_13_0_0
   + flow_18_13_0_0 + flow_19_13_0_0 + flow_21_13_0_0 + flow_22_13_0_0
   + flow_24_13_0_0 + flow_27_13_0_0 = 1
 one_parent_14: edge_0_14_0_0 + edge_9_14_0_0 + edge_10_14_0_0
   + edge_13_14_0_0 + edge_15_14_0_0 + edge_16_14_0_0 + edge_18_14_0_0
   + edge_19_14_0_0 + edge_21_14_0_0 + edge_24_14_0_0 + edge_27_14_0_0 = 1
 consume_one_flow_unit_14: flow_0_14_0_0 + flow_9_14_0_0 + flow_10_14_0_0
   + flow_13_14_0_0 - flow_14_9_0_0 - flow_14_10_0_0 - flow_14_12_0_0
   - flow_14_13_0_0 - flow_14_15_0_0 - flow_14_16_0_0 - flow_14_17_0_0
   - flow_14_18_0_0 - flow_14_19_0_0 - flow_14_20_0_0 - flow_14_21_0_0
   - flow_14_22_0_0 - flow_14_24_0_0 - flow_14_25_0_0 - flow_14_26_0_0
   - flow_14_27_0_0 - flow_14_28_0_0 + flow_15_14_0_0 + flow_16_14_0_0
   + flow_18_14_0_0 + flow_19_14_0_0 + flow_21_14_0_0 + flow_24_14_0_0
   + flow_27_14_0_0 = 1
 one_parent_15: edge_0_15_0_0 + edge_9_15_0_0 + edge_10_15_0_0
   + edge_13_15_0_0 + edge_14_15_0_0 + edge_16_15_0_0 + edge_18_15_0_0
   + edge_19_15_0_0 + edge_21_15_0_0 + edge_22_15_0_0 + edge_27_15_0_0 = 1
 consume_one_flow_unit_15: flow_0_15_0_0 + flow_9_15_0_0 + flow_10_15_0_0
   + flow_13_15_0_0 + flow_14_15_0_0 - flow_15_9_0_0 - flow_15_10_0_0
   - flow_15_13_0_0 - flow_15_14_0_0 - flow_15_16_0_0 - flow_15_22_0_0
   - flow_15_25_0_0 - flow_15_27_0_0 - flow_15_28_0_0 + flow_16_15_0_0
   + flow_18_15_0_0 + flow_19_15_0_0 + flow_21_15_0_0 + flow_22_15_0_0
   + flow_27_15_0_0 = 1
 one_parent_16: edge_0_16_0_0 + edge_9_16_0_0 + edge_10_16_0_0
   + edge_13_16_0_0 + edge_14_16_0_0 + edge_15_16_0_0 + edge_18_16_0_0
   + edge_19_16_0_0 + edge_21_16_0_0 + edge_22_16_0_0 + edge_24_16_0_0
   + edge_27_16_0_0 = 1
 consume_one_flow_unit_16: flow_0_16_0_0 + flow_9_16_0_0 + flow_10_16_0_0
   + flow_13_16_0_0 + flow_14_16_0_0 + flow_15_16_0_0 - flow_16_9_0_0
   - flow_16_10_0_0 - flow_16_12_0_0 - flow_16_13_0_0 - flow_16_14_0_0
   - flow_16_15_0_0 - flow_16_17_0_0 - flow_16_18_0_0 - flow_16_19_0_0
   - flow_16_21_0_0 - flow_16_22_0_0 - flow_16_24_0_0 - flow_16_25_0_0
   - flow_16_27_0_0 - flow_16_28_0_0 + flow_18_16_0_0 + flow_19_16_0_0
   + flow_21_16_0_0 + flow_22_16_0_0 + flow_24_16_0_0 + flow_27_16_0_0 = 1
 one_parent_17: edge_9_17_0_0 + edge_10_17_0_0 + edge_13_17_0_0
   + edge_14_17_0_0 + edge_16_17_0_0 + edge_18_17_0_0 + edge_19_17_0_0
   + edge_21_17_0_0 + edge_24_17_0_0 + edge_27_17_0_0 = 1
 consume_one_flow_unit_17: flow_9_17_0_0 + flow_10_17_0_0 + flow_13_17_0_0
   + flow_14_17_0_0 + flow_16_17_0_0 - flow_17_13_0_0 - flow_17_24_0_0
   + flow_18_17_0_0 + flow_19_17_0_0 + flow_21_17_0_0 + flow_24_17_0_0
   + flow_27_17_0_0 = 1
 one_parent_18: edge_0_18_0_0 + edge_10_18_0_0 + edge_13_18_0_0
   + edge_14_18_0_0 + edge_16_18_0_0 + edge_19_18_0_0 + edge_21_18_0_0
   + edge_24_18_0_0 + edge_26_18_0_0 + edge_27_18_0_0 = 1
 consume_one_flow_unit_18: flow_0_18_0_0 + flow_10_18_0_0 + flow_13_18_0_0
   + flow_14_18_0_0 + flow_16_18_0_0 - flow_18_9_0_0 - flow_18_10_0_0
   - flow_18_13_0_0 - flow_18_14_0_0 - flow_18_15_0_0 - flow_18_16_0_0
   - flow_18_17_0_0 - flow_18_19_0_0 - flow_18_21_0_0 - flow_18_24_0_0
   - flow_18_26_0_0 - flow_18_27_0_0 - flow_18_28_0_0 + flow_19_18_0_0
   + flow_21_18_0_0 + flow_24_18_0_0 + flow_26_18_0_0 + flow_27_18_0_0 = 1
 one_parent_19: edge_0_19_0_0 + edge_9_19_0_0 + edge_10_19_0_0
   + edge_13_19_0_0 + edge_14_19_0_0 + edge_16_19_0_0 + edge_18_19_0_0
   + edge_20_19_0_0 + edge_21_19_0_0 + edge_24_19_0_0 + edge_25_19_0_0
   + edge_27_19_0_0 = 1
 consume_one_flow_unit_19: flow_0_19_0_0 + flow_9_19_0_0 + flow_10_19_0_0
   + flow_13_19_0_0 + flow_14_19_0_0 + flow_16_19_0_0 + flow_18_19_0_0
   - flow_19_9_0_0 - flow_19_10_0_0 - flow_19_13_0_0 - flow_19_14_0_0
   - flow_19_15_0_0 - flow_19_16_0_0 - flow_19_17_0_0 - flow_19_18_0_0
   - flow_19_20_0_0 - flow_19_21_0_0 - flow_19_22_0_0 - flow_19_25_0_0
   - flow_19_26_0_0 - flow_19_27_0_0 - flow_19_28_0_0 + flow_20_19_0_0
   + flow_21_19_0_0 + flow_24_19_0_0 + flow_25_19_0_0 + flow_27_19_0_0 = 1
 one_parent_20: edge_10_20_0_0 + edge_14_20_0_0 + edge_19_20_0_0
   + edge_21_20_0_0 + edge_25_20_0_0 + edge_27_20_0_0 = 1
 consume_one_flow_unit_20: flow_10_20_0_0 + flow_14_20_0_0 + flow_19_20_0_0
   - flow_20_19_0_0 + flow_21_20_0_0 + flow_25_20_0_0 + flow_27_20_0_0 = 1
 one_parent_21: edge_0_21_0_0 + edge_9_21_0_0 + edge_10_21_0_0
   + edge_13_21_0_0 + edge_14_21_0_0 + edge_16_21_0_0 + edge_18_21_0_0
   + edge_19_21_0_0 + edge_24_21_0_0 + edge_25_21_0_0 + edge_26_21_0_0
   + edge_27_21_0_0 = 1
 consume_one_flow_unit_21: flow_0_21_0_0 + flow_9_21_0_0 + flow_10_21_0_0
   + flow_13_21_0_0 + flow_14_21_0_0 + flow_16_21_0_0 + flow_18_21_0_0
   + flow_19_21_0_0 - flow_21_9_0_0 - flow_21_10_0_0 - flow_21_13_0_0
   - flow_21_14_0_0 - flow_21_15_0_0 - flow_21_16_0_0 - flow_21_17_0_0
   - flow_21_18_0_0 - flow_21_19_0_0 - flow_21_20_0_0 - flow_21_22_0_0
   - flow_21_24_0_0 - flow_21_25_0_0 - flow_21_26_0_0 - flow_21_27_0_0
   - flow_21_28_0_0 + flow_24_21_0_0 + flow_25_21_0_0 + flow_26_21_0_0
   + flow_27_21_0_0 = 1
 one_parent_22: edge_9_22_0_0 + edge_10_22_0_0 + edge_13_22_0_0
   + edge_14_22_0_0 + edge_15_22_0_0 + edge_16_22_0_0 + edge_19_22_0_0
   + edge_21_22_0_0 + edge_25_22_0_0 + edge_27_22_0_0 = 1
 consume_one_flow_unit_22: flow_9_22_0_0 + flow_10_22_0_0 + flow_13_22_0_0
   + flow_14_22_0_0 + flow_15_22_0_0 + flow_16_22_0_0 + flow_19_22_0_0
   + flow_21_22_0_0 - flow_22_13_0_0 - flow_22_15_0_0 - flow_22_16_0_0
   - flow_22_25_0_0 + flow_25_22_0_0 + flow_27_22_0_0 = 1
 one_parent_23: = 1
 consume_one_flow_unit_23: = 1
 one_parent_24: edge_0_24_0_0 + edge_9_24_0_0 + edge_10_24_0_0
   + edge_13_24_0_0 + edge_14_24_0_0 + edge_16_24_0_0 + edge_17_24_0_0
   + edge_18_24_0_0 + edge_21_24_0_0 = 1
 consume_one_flow_unit_24: flow_0_24_0_0 + flow_9_24_0_0 + flow_10_24_0_0
   + flow_13_24_0_0 + flow_14_24_0_0 + flow_16_24_0_0 + flow_17_24_0_0
   + flow_18_24_0_0 + flow_21_24_0_0 - flow_24_9_0_0 - flow_24_10_0_0
   - flow_24_13_0_0 - flow_24_14_0_0 - flow_24_16_0_0 - flow_24_17_0_0
   - flow_24_18_0_0 - flow_24_19_0_0 - flow_24_21_0_0 - flow_24_26_0_0
   - flow_24_27_0_0 = 1
 one_parent_25: edge_9_25_0_0 + edge_13_25_0_0 + edge_14_25_0_0
   + edge_15_25_0_0 + edge_16_25_0_0 + edge_19_25_0_0 + edge_21_25_0_0
   + edge_22_25_0_0 + edge_27_25_0_0 = 1
 consume_one_flow_unit_25: flow_9_25_0_0 + flow_13_25_0_0 + flow_14_25_0_0
   + flow_15_25_0_0 + flow_16_25_0_0 + flow_19_25_0_0 + flow_21_25_0_0
   + flow_22_25_0_0 - flow_25_19_0_0 - flow_25_20_0_0 - flow_25_21_0_0
   - flow_25_22_0_0 - flow_25_27_0_0 + flow_27_25_0_0 = 1
 one_parent_26: edge_13_26_0_0 + edge_14_26_0_0 + edge_18_26_0_0
   + edge_19_26_0_0 + edge_21_26_0_0 + edge_24_26_0_0 + edge_27_26_0_0 = 1
 consume_one_flow_unit_26: flow_13_26_0_0 + flow_14_26_0_0 + flow_18_26_0_0
   + flow_19_26_0_0 + flow_21_26_0_0 + flow_24_26_0_0 - flow_26_18_0_0
   - flow_26_21_0_0 - flow_26_27_0_0 + flow_27_26_0_0 = 1
 one_parent_27: edge_0_27_0_0 + edge_9_27_0_0 + edge_10_27_0_0
   + edge_13_27_0_0 + edge_14_27_0_0 + edge_15_27_0_0 + edge_16_27_0_0
   + edge_18_27_0_0 + edge_19_27_0_0 + edge_21_27_0_0 + edge_24_27_0_0
   + edge_25_27_0_0 + edge_26_27_0_0 = 1
 consume_one_flow_unit_27: flow_0_27_0_0 + flow_9_27_0_0 + flow_10_27_0_0
   + flow_13_27_0_0 + flow_14_27_0_0 + flow_15_27_0_0 + flow_16_27_0_0
   + flow_18_27_0_0 + flow_19_27_0_0 + flow_21_27_0_0 + flow_24_27_0_0
   + flow_25_27_0_0 + flow_26_27_0_0 - flow_27_9_0_0 - flow_27_10_0_0
   - flow_27_13_0_0 - flow_27_14_0_0 - flow_27_15_0_0 - flow_27_16_0_0
   - flow_27_17_0_0 - flow_27_18_0_0 - flow_27_19_0_0 - flow_27_20_0_0
   - flow_27_21_0_0 - flow_27_22_0_0 - flow_27_25_0_0 - flow_27_26_0_0
   - flow_27_28_0_0 = 1
 one_parent_28: edge_9_28_0_0 + edge_10_28_0_0 + edge_13_28_0_0
   + edge_14_28_0_0 + edge_15_28_0_0 + edge_16_28_0_0 + edge_18_28_0_0
   + edge_19_28_0_0 + edge_21_28_0_0 + edge_27_28_0_0 = 1
 consume_one_flow_unit_28: flow_9_28_0_0 + flow_10_28_0_0 + flow_13_28_0_0
   + flow_14_28_0_0 + flow_15_28_0_0 + flow_16_28_0_0 + flow_18_28_0_0
   + flow_19_28_0_0 + flow_21_28_0_0 + flow_27_28_0_0 = 1
 root_flow: flow_0_9_0_0 + flow_0_10_0_0 + flow_0_13_0_0 + flow_0_14_0_0
   + flow_0_15_0_0 + flow_0_16_0_0 + flow_0_18_0_0 + flow_0_19_0_0
   + flow_0_21_0_0 + flow_0_24_0_0 + flow_0_27_0_0 = 28
 inactive_no_flow_0_9_0_0: flow_0_9_0_0 - 1000 edge_0_9_0_0 <= 0
 inactive_no_flow_0_10_0_0: flow_0_10_0_0 - 1000 edge_0_10_0_0 <= 0
 inactive_no_flow_0_13_0_0: flow_0_13_0_0 - 1000 edge_0_13_0_0 <= 0
 inactive_no_flow_0_14_0_0: flow_0_14_0_0 - 1000 edge_0_14_0_0 <= 0
 inactive_no_flow_0_15_0_0: flow_0_15_0_0 - 1000 edge_0_15_0_0 <= 0
 inactive_no_flow_0_16_0_0: flow_0_16_0_0 - 1000 edge_0_16_0_0 <= 0
 inactive_no_flow_0_18_0_0: flow_0_18_0_0 - 1000 edge_0_18_0_0 <= 0
 inactive_no_flow_0_19_0_0: flow_0_19_0_0 - 1000 edge_0_19_0_0 <= 0
 inactive_no_flow_0_21_0_0: flow_0_21_0_0 - 1000 edge_0_21_0_0 <= 0
 inactive_no_flow_0_24_0_0: flow_0_24_0_0 - 1000 edge_0_24_0_0 <= 0
 inactive_no_flow_0_27_0_0: flow_0_27_0_0 - 1000 edge_0_27_0_0 <= 0
 inactive_no_flow_9_10_0_0: flow_9_10_0_0 - 1000 edge_9_10_0_0 <= 0
 inactive_no_flow_9_12_0_0: flow_9_12_0_0 - 1000 edge_9_12_0_0 <= 0
 inactive_no_flow_9_13_0_0: flow_9_13_0_0 - 1000 edge_9_13_0_0 <= 0
 inactive_no_flow_9_14_0_0: flow_9_14_0_0 - 1000 edge_9_14_0_0 <= 0
 inactive_no_flow_9_15_0_0: flow_9_15_0_0 - 1000 edge_9_15_0_0 <= 0
 inactive_no_flow_9_16_0_0: flow_9_16_0_0 - 1000 edge_9_16_0_0 <= 0
 inactive_no_flow_9_17_0_0: flow_9_17_0_0 - 1000 edge_9_17_0_0 <= 0
 inactive_no_flow_9_19_0_0: flow_9_19_0_0 - 1000 edge_9_19_0_0 <= 0
 inactive_no_flow_9_21_0_0: flow_9_21_0_0 - 1000 edge_9_21_0_0 <= 0
 inactive_no_flow_9_22_0_0: flow_9_22_0_0 - 1000 edge_9_22_0_0 <= 0
 inactive_no_flow_9_24_0_0: flow_9_24_0_0 - 1000 edge_9_24_0_0 <= 0
 inactive_no_flow_9_25_0_0: flow_9_25_0_0 - 1000 edge_9_25_0_0 <= 0
 inactive_no_flow_9_27_0_0: flow_9_27_0_0 - 1000 edge_9_27_0_0 <= 0
 inactive_no_flow_9_28_0_0: flow_9_28_0_0 - 1000 edge_9_28_0_0 <= 0
 inactive_no_flow_10_9_0_0: flow_10_9_0_0 - 1000 edge_10_9_0_0 <= 0
 inactive_no_flow_10_12_0_0: flow_10_12_0_0 - 1000 edge_10_12_0_0 <= 0
 inactive_no_flow_10_13_0_0: flow_10_13_0_0 - 1000 edge_10_13_0_0 <= 0
 inactive_no_flow_10_14_0_0: flow_10_14_0_0 - 1000 edge_10_14_0_0 <= 0
 inactive_no_flow_10_15_0_0: flow_10_15_0_0 - 1000 edge_10_15_0_0 <= 0
 inactive_no_flow_10_16_0_0: flow_10_16_0_0 - 1000 edge_10_16_0_0 <= 0
 inactive_no_flow_10_17_0_0: flow_10_17_0_0 - 1000 edge_10_17_0_0 <= 0
 inactive_no_flow_10_18_0_0: flow_10_18_0_0 - 1000 edge_10_18_0_0 <= 0
 inactive_no_flow_10_19_0_0: flow_10_19_0_0 - 1000 edge_10_19_0_0 <= 0
 inactive_no_flow_10_20_0_0: flow_10_20_0_0 - 1000 edge_10_20_0_0 <= 0
 inactive_no_flow_10_21_0_0: flow_10_21_0_0 - 1000 edge_10_21_0_0 <= 0
 inactive_no_flow_10_22_0_0: flow_10_22_0_0 - 1000 edge_10_22_0_0 <= 0
 inactive_no_flow_10_24_0_0: flow_10_24_0_0 - 1000 edge_10_24_0_0 <= 0
 inactive_no_flow_10_27_0_0: flow_10_27_0_0 - 1000 edge_10_27_0_0 <= 0
 inactive_no_flow_10_28_0_0: flow_10_28_0_0 - 1000 edge_10_28_0_0 <= 0
 inactive_no_flow_12_9_0_0: flow_12_9_0_0 - 1000 edge_12_9_0_0 <= 0
 inactive_no_flow_13_9_0_0: flow_13_9_0_0 - 1000 edge_13_9_0_0 <= 0
 inactive_no_flow_13_10_0_0: flow_13_10_0_0 - 1000 edge_13_10_0_0 <= 0
 inactive_no_flow_13_12_0_0: flow_13_12_0_0 - 1000 edge_13_12_0_0 <= 0
 inactive_no_flow_13_14_0_0: flow_13_14_0_0 - 1000 edge_13_14_0_0 <= 0
 inactive_no_flow_13_15_0_0: flow_13_15_0_0 - 1000 edge_13_15_0_0 <= 0
 inactive_no_flow_13_16_0_0: flow_13_16_0_0 - 1000 edge_13_16_0_0 <= 0
 inactive_no_flow_13_17_0_0: flow_13_17_0_0 - 1000 edge_13_17_0_0 <= 0
 inactive_no_flow_13_18_0_0: flow_13_18_0_0 - 1000 edge_13_18_0_0 <= 0
 inactive_no_flow_13_19_0_0: flow_13_19_0_0 - 1000 edge_13_19_0_0 <= 0
 inactive_no_flow_13_21_0_0: flow_13_21_0_0 - 1000 edge_13_21_0_0 <= 0
 inactive_no_flow_13_22_0_0: flow_13_22_0_0 - 1000 edge_13_22_0_0 <= 0
 inactive_no_flow_13_24_0_0: flow_13_24_0_0 - 1000 edge_13_24_0_0 <= 0
 inactive_no_flow_13_25_0_0: flow_13_25_0_0 - 1000 edge_13_25_0_0 <= 0
 inactive_no_flow_13_26_0_0: flow_13_26_0_0 - 1000 edge_13_26_0_0 <= 0
 inactive_no_flow_13_27_0_0: flow_13_27_0_0 - 1000 edge_13_27_0_0 <= 0
 inactive_no_flow_13_28_0_0: flow_13_28_0_0 - 1000 edge_13_28_0_0 <= 0
 inactive_no_flow_14_9_0_0: flow_14_9_0_0 - 1000 edge_14_9_0_0 <= 0
 inactive_no_flow_14_10_0_0: flow_14_10_0_0 - 1000 edge_14_10_0_0 <= 0
 inactive_no_flow_14_12_0_0: flow_14_12_0_0 - 1000 edge_14_12_0_0 <= 0
 inactive_no_flow_14_13_0_0: flow_14_13_0_0 - 1000 edge_14_13_0_0 <= 0
 inactive_no_flow_14_15_0_0: flow_14_15_0_0 - 1000 edge_14_15_0_0 <= 0
 inactive_no_flow_14_16_0_0: flow_14_16_0_0 - 1000 edge_14_16_0_0 <= 0
 inactive_no_flow_14_17_0_0: flow_14_17_0_0 - 1000 edge_14_17_0_0 <= 0
 inactive_no_flow_14_18_0_0: flow_14_18_0_0 - 1000 edge_14_18_0_0 <= 0
 inactive_no_flow_14_19_0_0: flow_14_19_0_0 - 1000 edge_14_19_0_0 <= 0
 inactive_no_flow_14_20_0_0: flow_14_20_0_0 - 1000 edge_14_20_0_0 <= 0
 inactive_no_flow_14_21_0_0: flow_14_21_0_0 - 1000 edge_14_21_0_0 <= 0
 inactive_no_flow_14_22_0_0: flow_14_22_0_0 - 1000 edge_14_22_0_0 <= 0
 inactive_no_flow_14_24_0_0: flow_14_24_0_0 - 1000 edge_14_24_0_0 <= 0
 inactive_no_flow_14_25_0_0: flow_14_25_0_0 - 1000 edge_14_25_0_0 <= 0
 inactive_no_flow_14_26_0_0: flow_14_26_0_0 - 1000 edge_14_26_0_0 <= 0
 inactive_no_flow_14_27_0_0: flow_14_27_0_0 - 1000 edge_14_27_0_0 <= 0
 inactive_no_flow_14_28_0_0: flow_14_28_0_0 - 1000 edge_14_28_0_0 <= 0
 inactive_no_flow_15_9_0_0: flow_15_9_0_0 - 1000 edge_15_9_0_0 <= 0
 inactive_no_flow_15_10_0_0: flow_15_10_0_0 - 1000 edge_15_10_0_0 <= 0
 inactive_no_flow_15_13_0_0: flow_15_13_0_0 - 1000 edge_15_13_0_0 <= 0
 inactive_no_flow_15_14_0_0: flow_15_14_0_0 - 1000 edge_15_14_0_0 <= 0
 inactive_no_flow_15_16_0_0: flow_15_16_0_0 - 1000 edge_15_16_0_0 <= 0
 inactive_no_flow_15_22_0_0: flow_15_22_0_0 - 1000 edge_15_22_0_0 <= 0
 inactive_no_flow_15_25_0_0: flow_15_25_0_0 - 1000 edge_15_25_0_0 <= 0
 inactive_no_flow_15_27_0_0: flow_15_27_0_0 - 1000 edge_15_27_0_0 <= 0
 inactive_no_flow_15_28_0_0: flow_15_28_0_0 - 1000 edge_15_28_0_0 <= 0
 inactive_no_flow_16_9_0_0: flow_16_9_0_0 - 1000 edge_16_9_0_0 <= 0
 inactive_no_flow_16_10_0_0: flow_16_10_0_0 - 1000 edge_16_10_0_0 <= 0
 inactive_no_flow_16_12_0_0: flow_16_12_0_0 - 1000 edge_16_12_0_0 <= 0
 inactive_no_flow_16_13_0_0: flow_16_13_0_0 - 1000 edge_16_13_0_0 <= 0
 inactive_no_flow_16_14_0_0: flow_16_14_0_0 - 1000 edge_16_14_0_0 <= 0
 inactive_no_flow_16_15_0_0: flow_16_15_0_0 - 1000 edge_16_15_0_0 <= 0
 inactive_no_flow_16_17_0_0: flow_16_17_0_0 - 1000 edge_16_17_0_0 <= 0
 inactive_no_flow_16_18_0_0: flow_16_18_0_0 - 1000 edge_16_18_0_0 <= 0
 inactive_no_flow_16_19_0_0: flow_16_19_0_0 - 1000 edge_16_19_0_0 <= 0
 inactive_no_flow_16_21_0_0: flow_16_21_0_0 - 1000 edge_16_21_0_0 <= 0
 inactive_no_flow_16_22_0_0: flow_16_22_0_0 - 1000 edge_16_22_0_0 <= 0
 inactive_no_flow_16_24_0_0: flow_16_24_0_0 - 1000 edge_16_24_0_0 <= 0
 inactive_no_flow_16_25_0_0: flow_16_25_0_0 - 1000 edge_16_25_0_0 <= 0
 inactive_no_flow_16_27_0_0: flow_16_27_0_0 - 1000 edge_16_27_0_0 <= 0
 inactive_no_flow_16_28_0_0: flow_16_28_0_0 - 1000 edge_16_28_0_0 <= 0
 inactive_no_flow_17_13_0_0: flow_17_13_0_0 - 1000 edge_17_13_0_0 <= 0
 inactive_no_flow_17_24_0_0: flow_17_24_0_0 - 1000 edge_17_24_0_0 <= 0
 inactive_no_flow_18_9_0_0: flow_18_9_0_0 - 1000 edge_18_9_0_0 <= 0
 inactive_no_flow_18_10_0_0: flow_18_10_0_0 - 1000 edge_18_10_0_0 <= 0
 inactive_no_flow_18_13_0_0: flow_18_13_0_0 - 1000 edge_18_13_0_0 <= 0
 inactive_no_flow_18_14_0_0: flow_18_14_0_0 - 1000 edge_18_14_0_0 <= 0
 inactive_no_flow_18_15_0_0: flow_18_15_0_0 - 1000 edge_18_15_0_0 <= 0
 inactive_no_flow_18_16_0_0: flow_18_16_0_0 - 1000 edge_18_16_0_0 <= 0
 inactive_no_flow_18_17_0_0: flow_18_17_0_0 - 1000 edge_18_17_0_0 <= 0
 inactive_no_flow_18_19_0_0: flow_18_19_0_0 - 1000 edge_18_19_0_0 <= 0
 inactive_no_flow_18_21_0_0: flow_18_21_0_0 - 1000 edge_18_21_0_0 <= 0
 inactive_no_flow_18_24_0_0: flow_18_24_0_0 - 1000 edge_18_24_0_0 <= 0
 inactive_no_flow_18_26_0_0: flow_18_26_0_0 - 1000 edge_18_26_0_0 <= 0
 inactive_no_flow_18_27_0_0: flow_18_27_0_0 - 1000 edge_18_27_0_0 <= 0
 inactive_no_flow_18_28_0_0: flow_18_28_0_0 - 1000 edge_18_28_0_0 <= 0
 inactive_no_flow_19_9_0_0: flow_19_9_0_0 - 1000 edge_19_9_0_0 <= 0
 inactive_no_flow_19_10_0_0: flow_19_10_0_0 - 1000 edge_19_10_0_0 <= 0
 inactive_no_flow_19_13_0_0: flow_19_13_0_0 - 1000 edge_19_13_0_0 <= 0
 inactive_no_flow_19_14_0_0: flow_19_14_0_0 - 1000 edge_19_14_0_0 <= 0
 inactive_no_flow_19_15_0_0: flow_19_15_0_0 - 1000 edge_19_15_0_0 <= 0
 inactive_no_flow_19_16_0_0: flow_19_16_0_0 - 1000 edge_19_16_0_0 <= 0
 inactive_no_flow_19_17_0_0: flow_19_17_0_0 - 1000 edge_19_17_0_0 <= 0
 inactive_no_flow_19_18_0_0: flow_19_18_0_0 - 1000 edge_19_18_0_0 <= 0
 inactive_no_flow_19_20_0_0: flow_19_20_0_0 - 1000 edge_19_20_0_0 <= 0
 inactive_no_flow_19_21_0_0: flow_19_21_0_0 - 1000 edge_19_21_0_0 <= 0
 inactive_no_flow_19_22_0_0: flow_19_22_0_0 - 1000 edge_19_22_0_0 <= 0
 inactive_no_flow_19_25_0_0: flow_19_25_0_0 - 1000 edge_19_25_0_0 <= 0
 inactive_no_flow_19_26_0_0: flow_19_26_0_0 - 1000 edge_19_26_0_0 <= 0
 inactive_no_flow_19_27_0_0: flow_19_27_0_0 - 1000 edge_19_27_0_0 <= 0
 inactive_no_flow_19_28_0_0: flow_19_28_0_0 - 1000 edge_19_28_0_0 <= 0
 inactive_no_flow_20_19_0_0: flow_20_19_0_0 - 1000 edge_20_19_0_0 <= 0
 inactive_no_flow_21_9_0_0: flow_21_9_0_0 - 1000 edge_21_9_0_0 <= 0
 inactive_no_flow_21_10_0_0: flow_21_10_0_0 - 1000 edge_21_10_0_0 <= 0
 inactive_no_flow_21_13_0_0: flow_21_13_0_0 - 1000 edge_21_13_0_0 <= 0
 inactive_no_flow_21_14_0_0: flow_21_14_0_0 - 1000 edge_21_14_0_0 <= 0
 inactive_no_flow_21_15_0_0: flow_21_15_0_0 - 1000 edge_21_15_0_0 <= 0
 inactive_no_flow_21_16_0_0: flow_21_16_0_0 - 1000 edge_21_16_0_0 <= 0
 inactive_no_flow_21_17_0_0: flow_21_17_0_0 - 1000 edge_21_17_0_0 <= 0
 inactive_no_flow_21_18_0_0: flow_21_18_0_0 - 1000 edge_21_18_0_0 <= 0
 inactive_no_flow_21_19_0_0: flow_21_19_0_0 - 1000 edge_21_19_0_0 <= 0
 inactive_no_flow_21_20_0_0: flow_21_20_0_0 - 1000 edge_21_20_0_0 <= 0
 inactive_no_flow_21_22_0_0: flow_21_22_0_0 - 1000 edge_21_22_0_0 <= 0
 inactive_no_flow_21_24_0_0: flow_21_24_0_0 - 1000 edge_21_24_0_0 <= 0
 inactive_no_flow_21_25_0_0: flow_21_25_0_0 - 1000 edge_21_25_0_0 <= 0
 inactive_no_flow_21_26_0_0: flow_21_26_0_0 - 1000 edge_21_26_0_0 <= 0
 inactive_no_flow_21_27_0_0: flow_21_27_0_0 - 1000 edge_21_27_0_0 <= 0
 inactive_no_flow_21_28_0_0: flow_21_28_0_0 - 1000 edge_21_28_0_0 <= 0
 inactive_no_flow_22_13_0_0: flow_22_13_0_0 - 1000 edge_22_13_0_0 <= 0
 inactive_no_flow_22_15_0_0: flow_22_15_0_0 - 1000 edge_22_15_0_0 <= 0
 inactive_no_flow_22_16_0_0: flow_22_16_0_0 - 1000 edge_22_16_0_0 <= 0
 inactive_no_flow_22_25_0_0: flow_22_25_0_0 - 1000 edge_22_25_0_0 <= 0
 inactive_no_flow_24_9_0_0: flow_24_9_0_0 - 1000 edge_24_9_0_0 <= 0
 inactive_no_flow_24_10_0_0: flow_24_10_0_0 - 1000 edge_24_10_0_0 <= 0
 inactive_no_flow_24_13_0_0: flow_24_13_0_0 - 1000 edge_24_13_0_0 <= 0
 inactive_no_flow_24_14_0_0: flow_24_14_0_0 - 1000 edge_24_14_0_0 <= 0
 inactive_no_flow_24_16_0_0: flow_24_16_0_0 - 1000 edge_24_16_0_0 <= 0
 inactive_no_flow_24_17_0_0: flow_24_17_0_0 - 1000 edge_24_17_0_0 <= 0
 inactive_no_flow_24_18_0_0: flow_24_18_0_0 - 1000 edge_24_18_0_0 <= 0
 inactive_no_flow_24_19_0_0: flow_24_19_0_0 - 1000 edge_24_19_0_0 <= 0
 inactive_no_flow_24_21_0_0: flow_24_21_0_0 - 1000 edge_24_21_0_0 <= 0
 inactive_no_flow_24_26_0_0: flow_24_26_0_0 - 1000 edge_24_26_0_0 <= 0
 inactive_no_flow_24_27_0_0: flow_24_27_0_0 - 1000 edge_24_27_0_0 <= 0
 inactive_no_flow_25_19_0_0: flow_25_19_0_0 - 1000 edge_25_19_0_0 <= 0
 inactive_no_flow_25_20_0_0: flow_25_20_0_0 - 1000 edge_25_20_0_0 <= 0
 inactive_no_flow_25_21_0_0: flow_25_21_0_0 - 1000 edge_25_21_0_0 <= 0
 inactive_no_flow_25_22_0_0: flow_25_22_0_0 - 1000 edge_25_22_0_0 <= 0
 inactive_no_flow_25_27_0_0: flow_25_27_0_0 - 1000 edge_25_27_0_0 <= 0
 inactive_no_flow_26_18_0_0: flow_26_18_0_0 - 1000 edge_26_18_0_0 <= 0
 inactive_no_flow_26_21_0_0: flow_26_21_0_0 - 1000 edge_26_21_0_0 <= 0
 inactive_no_flow_26_27_0_0: flow_26_27_0_0 - 1000 edge_26_27_0_0 <= 0
 inactive_no_flow_27_9_0_0: flow_27_9_0_0 - 1000 edge_27_9_0_0 <= 0
 inactive_no_flow_27_10_0_0: flow_27_10_0_0 - 1000 edge_27_10_0_0 <= 0
 inactive_no_flow_27_13_0_0: flow_27_13_0_0 - 1000 edge_27_13_0_0 <= 0
 inactive_no_flow_27_14_0_0: flow_27_14_0_0 - 1000 edge_27_14_0_0 <= 0
 inactive_no_flow_27_15_0_0: flow_27_15_0_0 - 1000 edge_27_15_0_0 <= 0
 inactive_no_flow_27_16_0_0: flow_27_16_0_0 - 1000 edge_27_16_0_0 <= 0
 inactive_no_flow_27_17_0_0: flow_27_17_0_0 - 1000 edge_27_17_0_0 <= 0
 inactive_no_flow_27_18_0_0: flow_27_18_0_0 - 1000 edge_27_18_0_0 <= 0
 inactive_no_flow_27_19_0_0: flow_27_19_0_0 - 1000 edge_27_19_0_0 <= 0
 inactive_no_flow_27_20_0_0: flow_27_20_0_0 - 1000 edge_27_20_0_0 <= 0
 inactive_no_flow_27_21_0_0: flow_27_21_0_0 - 1000 edge_27_21_0_0 <= 0
 inactive_no_flow_27_22_0_0: flow_27_22_0_0 - 1000 edge_27_22_0_0 <= 0
 inactive_no_flow_27_25_0_0: flow_27_25_0_0 - 1000 edge_27_25_0_0 <= 0
 inactive_no_flow_27_26_0_0: flow_27_26_0_0 - 1000 edge_27_26_0_0 <= 0
 inactive_no_flow_27_28_0_0: flow_27_28_0_0 - 1000 edge_27_28_0_0 <= 0
Bounds
Binaries
 edge_0_9_0_0 edge_0_10_0_0 edge_0_13_0_0 edge_0_14_0_0 edge_0_15_0_0
 edge_0_16_0_0 edge_0_18_0_0 edge_0_19_0_0 edge_0_21_0_0 edge_0_24_0_0
 edge_0_27_0_0 edge_9_10_0_0 edge_9_12_0_0 edge_9_13_0_0 edge_9_14_0_0
 edge_9_15_0_0 edge_9_16_0_0 edge_9_17_0_0 edge_9_19_0_0 edge_9_21_0_0
 edge_9_22_0_0 edge_9_24_0_0 edge_9_25_0_0 edge_9_27_0_0 edge_9_28_0_0
 edge_10_9_0_0 edge_10_12_0_0 edge_10_13_0_0 edge_10_14_0_0 edge_10_15_0_0
 edge_10_16_0_0 edge_10_17_0_0 edge_10_18_0_0 edge_10_19_0_0 edge_10_20_0_0
 edge_10_21_0_0 edge_10_22_0_0 edge_10_24_0_0 edge_10_27_0_0 edge_10_28_0_0
 edge_12_9_0_0 edge_13_9_0_0 edge_13_10_0_0 edge_13_12_0_0 edge_13_14_0_0
 edge_13_15_0_0 edge_13_16_0_0 edge_13_17_0_0 edge_13_18_0_0 edge_13_19_0_0
 edge_13_21_0_0 edge_13_22_0_0 edge_13_24_0_0 edge_13_25_0_0 edge_13_26_0_0
 edge_13_27_0_0 edge_13_28_0_0 edge_14_9_0_0 edge_14_10_0_0 edge_14_12_0_0
 edge_14_13_0_0 edge_14_15_0_0 edge_14_16_0_0 edge_14_17_0_0 edge_14_18_0_0
 edge_14_19_0_0 edge_14_20_0_0 edge_14_21_0_0 edge_14_22_0_0 edge_14_24_0_0
 edge_14_25_0_0 edge_14_26_0_0 edge_14_27_0_0 edge_14_28_0_0 edge_15_9_0_0
 edge_15_10_0_0 edge_15_13_0_0 edge_15_14_0_0 edge_15_16_0_0 edge_15_22_0_0
 edge_15_25_0_0 edge_15_27_0_0 edge_15_28_0_0 edge_16_9_0_0 edge_16_10_0_0
 edge_16_12_0_0 edge_16_13_0_0 edge_16_14_0_0 edge_16_15_0_0 edge_16_17_0_0
 edge_16_18_0_0 edge_16_19_0_0 edge_16_21_0_0 edge_16_22_0_0 edge_16_24_0_0
 edge_16_25_0_0 edge_16_27_0_0 edge_16_28_0_0 edge_17_13_0_0 edge_17_24_0_0
 edge_18_9_0_0 edge_18_10_0_0 edge_18_13_0_0 edge_18_14_0_0 edge_18_15_0_0
 edge_18_16_0_0 edge_18_17_0_0 edge_18_19_0_0 edge_18_21_0_0 edge_18_24_0_0
 edge_18_26_0_0 edge_18_27_0_0 edge_18_28_0_0 edge_19_9_0_0 edge_19_10_0_0
 edge_19_13_0_0 edge_19_14_0_0 edge_19_15_0_0 edge_19_16_0_0 edge_19_17_0_0
 edge_19_18_0_0 edge_19_20_0_0 edge_19_21_0_0 edge_19_22_0_0 edge_19_25_0_0
 edge_19_26_0_0 edge_19_27_0_0 edge_19_28_0_0 edge_20_19_0_0 edge_21_9_0_0
 edge_21_10_0_0 edge_21_13_0_0 edge_21_14_0_0 edge_21_15_0_0 edge_21_16_0_0
 edge_21_17_0_0 edge_21_18_0_0 edge_21_19_0_0 edge_21_20_0_0 edge_21_22_0_0
 edge_21_24_0_0 edge_21_25_0_0 edge_21_26_0_0 edge_21_27_0_0 edge_21_28_0_0
 edge_22_13_0_0 edge_22_15_0_0 edge_22_16_0_0 edge_22_25_0_0 edge_24_9_0_0
 edge_24_10_0_0 edge_24_13_0_0 edge_24_14_0_0 edge_24_16_0_0 edge_24_17_0_0
 edge_24_18_0_0 edge_24_19_0_0 edge_24_21_0_0 edge_24_26_0_0 edge_24_27_0_0
 edge_25_19_0_0 edge_25_20_0_0 edge_25_21_0_0 edge_25_22_0_0 edge_25_27_0_0
 edge_26_18_0_0 edge_26_21_0_0 edge_26_27_0_0 edge_27_9_0_0 edge_27_10_0_0
 edge_27_13_0_0 edge_27_14_0_0 edge_27_15_0_0 edge_27_16_0_0 edge_27_17_0_0
 edge_27_18_0_0 edge_27_19_0_0 edge_27_20_0_0 edge_27_21_0_0 edge_27_22_0_0
 edge_27_25_0_0 edge_27_26_0_0 edge_27_28_0_0
End
